12 66
1 2 4
1 3 2
1 4 2
1 5 2
1 6 5
1 7 5
1 8 2
1 9 3
1 10 3
1 11 5
1 12 5
2 3 2
2 4 1
2 5 5
2 6 3
2 7 2
2 8 5
2 9 5
2 10 1
2 11 5
2 12 2
3 4 4
3 5 3
3 6 3
3 7 5
3 8 2
3 9 4
3 10 5
3 11 2
3 12 5
4 5 5
4 6 4
4 7 5
4 8 3
4 9 3
4 10 1
4 11 2
4 12 3
5 6 2
5 7 1
5 8 1
5 9 1
5 10 5
5 11 2
5 12 1
6 7 3
6 8 4
6 9 4
6 10 3
6 11 1
6 12 3
7 8 3
7 9 2
7 10 1
7 11 2
7 12 3
8 9 5
8 10 1
8 11 3
8 12 1
9 10 1
9 11 4
9 12 4
10 11 2
10 12 2
11 12 2
